100 100 100
50
41 92 82
17 83 67
45 99 88
27 84 88
34 85 74
30 69 88
26 80 74
10 89 70
68 23 93
22 78 84
77 7 93
21 22 43
79 49 77
39 87 98
25 67 75
20 72 100
11 93 93
21 74 97
14 8 42
88 89 43
11 74 74
5 80 99
44 74 92
10 66 84
85 37 66
84 43 67
83 3 74
88 84 77
44 69 82
49 97 98
17 74 79
33 89 95
38 70 75
88 70 73
92 98 15
88 80 8
26 84 81
14 90 67
64 59 92
74 50 55
44 96 85
79 23 80
24 91 97
5 89 81
27 73 88
82 46 84
91 92 84
29 75 97
73 26 74
12 9 42
